0	154	293	0	200
1	93	5	0	200
2	406	492	0	200
3	368	114	0	200
4	465	443	0	200
5	443	184	0	200
6	67	335	0	200
7	458	394	0	200
8	244	197	0	200
9	225	147	0	200
10	37	49	0	200
11	201	477	0	200
12	131	345	0	200
13	53	441	0	200
14	26	411	0	200
15	305	288	0	200
16	55	491	0	200
17	477	110	0	200
18	467	344	0	200
19	149	183	0	200
20	178	133	0	200
21	421	204	0	200
22	399	380	0	200
23	387	226	0	200
24	282	424	0	200
